VEHICLE NO.,CUST NO.,LATITUDE,LONGITUDE,DEMAND,FROM TIME,TO TIME,SERVICE TIME
0,11,35.19807886,137.0112822,0,2000/1/1 9:00:00,2000/1/1 17:00:00,0
1,1000001,35.19807886,137.0112822,0,1000/1/1 0:00:00,3000/1/1 0:00:00,0
2,1000002,35.19807886,137.0112822,0,1000/1/1 0:00:00,3000/1/1 0:00:00,0
3,1000003,35.19807886,137.0112822,0,1000/1/1 0:00:00,3000/1/1 0:00:00,0